LengthSchedulingHorizon=3625;
nAttributes=5;
SetupCosts=[[0, 0, 0, 0, 0], [3, 2, 2, 1, 0], [2, 3, 2, 2, 1], [2, 2, 2, 0, 1], [1, 2, 0, 3, 0], [0, 1, 1, 0, 0]];
SetupTimes=[[0, 0, 0, 0, 0], [0, 0, 0, 1, 1], [0, 0, 3, 1, 2], [0, 3, 0, 0, 3], [1, 1, 0, 3, 3], [1, 2, 3, 3, 0]];
nMachines=2;
MinCap=[0, 0];
MaxCap=[82, 17];

initState=[4, 3];
nShifts=5;
ShiftStartTimes = [[1278, 1731, 1793, 2284, 2442], [471, 509, 1578, 3542, 3556]];
ShiftEndTimes = [[1572, 1768, 2024, 2387, 3162], [507, 855, 2356, 3550, 3606]];
nJobs=100;
EligibleMachines = [{1, 2}, {1, 2}, {1}, {1, 2}, {1, 2}, {2}, {2}, {1}, {1, 2}, {1, 2}, {1}, {1, 2}, {2}, {1, 2}, {1, 2}, {1, 2}, {2}, {1, 2}, {2}, {1, 2}, {1}, {1, 2}, {1}, {1, 2}, {1}, {1, 2}, {1, 2}, {2}, {1, 2}, {1}, {1, 2}, {1, 2}, {1}, {2}, {2}, {1}, {1, 2}, {1, 2}, {1}, {1, 2}, {2}, {2}, {1, 2}, {2}, {1, 2}, {1, 2}, {1, 2}, {1}, {1, 2}, {1}, {1, 2}, {1, 2}, {2}, {1}, {2}, {1}, {1}, {2}, {1}, {1, 2}, {1}, {1}, {1}, {2}, {2}, {1, 2}, {1}, {1}, {1}, {1, 2}, {1}, {1}, {1, 2}, {1, 2}, {2}, {2}, {2}, {1, 2}, {2}, {2}, {1, 2}, {2}, {1, 2}, {1, 2}, {1, 2}, {1, 2}, {1, 2}, {1, 2}, {2}, {1}, {1, 2}, {1, 2}, {1, 2}, {1, 2}, {1}, {2}, {1}, {1, 2}, {1, 2}, {1, 2}];
EarliestStart=[186, 107, 139, 151, 144, 115, 92, 263, 57, 74, 191, 75, 0, 254, 156, 244, 87, 142, 127, 68, 246, 220, 108, 195, 262, 196, 191, 14, 133, 1, 181, 250, 11, 260, 140, 159, 266, 123, 14, 194, 213, 86, 128, 172, 55, 56, 7, 21, 145, 57, 248, 73, 122, 21, 266, 237, 269, 214, 160, 219, 195, 78, 130, 55, 163, 212, 63, 11, 114, 267, 249, 235, 128, 204, 126, 160, 91, 207, 140, 205, 189, 170, 140, 76, 24, 107, 127, 261, 265, 174, 160, 51, 234, 66, 269, 134, 226, 72, 8, 114];
LatestEnd=[225, 146, 160, 157, 148, 119, 111, 280, 75, 76, 192, 107, 42, 261, 185, 253, 103, 154, 130, 105, 258, 229, 111, 232, 270, 203, 225, 15, 142, 13, 190, 262, 15, 268, 159, 162, 286, 131, 27, 216, 223, 99, 145, 193, 57, 63, 30, 25, 148, 67, 257, 91, 133, 39, 289, 252, 280, 240, 164, 247, 212, 88, 135, 84, 169, 225, 74, 25, 123, 280, 276, 251, 130, 235, 137, 182, 113, 211, 150, 208, 229, 183, 141, 105, 31, 115, 131, 283, 291, 193, 178, 53, 235, 73, 271, 142, 257, 101, 20, 133];
MinTime=[10, 8, 9, 6, 3, 1, 4, 10, 10, 1, 1, 7, 10, 2, 6, 7, 9, 9, 2, 9, 4, 4, 1, 10, 4, 7, 7, 1, 9, 3, 7, 9, 2, 7, 5, 2, 9, 2, 7, 6, 6, 10, 6, 8, 1, 2, 8, 2, 1, 3, 2, 6, 6, 5, 8, 6, 7, 9, 2, 6, 5, 4, 2, 7, 4, 3, 5, 4, 7, 5, 8, 8, 2, 7, 3, 5, 9, 4, 9, 3, 10, 5, 1, 6, 2, 2, 3, 7, 10, 10, 5, 1, 1, 2, 2, 3, 8, 10, 4, 9];
MaxTime=[10, 10, 10, 10, 10, 10, 10, 10, 10, 10, 10, 10, 10, 10, 10, 10, 10, 10, 10, 10, 10, 10, 10, 10, 10, 10, 10, 10, 10, 10, 10, 10, 10, 10, 10, 10, 10, 10, 10, 10, 10, 10, 10, 10, 10, 10, 10, 10, 10, 10, 10, 10, 10, 10, 10, 10, 10, 10, 10, 10, 10, 10, 10, 10, 10, 10, 10, 10, 10, 10, 10, 10, 10, 10, 10, 10, 10, 10, 10, 10, 10, 10, 10, 10, 10, 10, 10, 10, 10, 10, 10, 10, 10, 10, 10, 10, 10, 10, 10, 10];
JobSize=[1, 5, 3, 1, 5, 1, 4, 1, 1, 4, 5, 5, 3, 5, 4, 2, 1, 3, 5, 1, 1, 1, 3, 4, 3, 1, 4, 5, 1, 4, 1, 5, 2, 3, 1, 4, 5, 4, 1, 4, 5, 2, 3, 4, 4, 5, 5, 5, 1, 3, 5, 5, 3, 1, 3, 1, 3, 3, 4, 1, 3, 2, 5, 2, 2, 2, 3, 1, 2, 3, 2, 4, 1, 4, 1, 1, 1, 2, 5, 4, 5, 4, 5, 2, 3, 2, 3, 5, 2, 1, 4, 1, 1, 3, 2, 4, 5, 5, 3, 1];
Attribute=[5, 4, 5, 4, 5, 3, 3, 5, 5, 5, 5, 1, 5, 4, 3, 3, 3, 3, 5, 2, 5, 5, 5, 4, 3, 4, 5, 1, 5, 2, 5, 5, 5, 4, 4, 4, 3, 5, 5, 5, 3, 4, 4, 1, 3, 1, 3, 3, 2, 3, 3, 5, 1, 2, 3, 5, 1, 1, 2, 4, 5, 1, 4, 4, 5, 3, 2, 4, 4, 3, 3, 1, 4, 5, 4, 3, 5, 5, 3, 4, 4, 4, 4, 4, 5, 3, 4, 3, 4, 4, 1, 5, 3, 1, 2, 4, 5, 3, 2, 1];

upper_bound_integer_objective=63000;
mult_factor_total_runtime=4;
mult_factor_finished_toolate=600;
mult_factor_total_setuptimes=0;
mult_factor_total_setupcosts=2;
running_time_bound=539;
min_duration=1;
max_duration=10;
max_setup_time=3;
max_setup_cost=3;
